NAME : MUMBAI
COMMENT : The City of Mumbai - Nodes based on (Latitude, Longitude) * 100 (Convert to km)
DIMENSION : 9
1	7282.911	1901.632
2	7281.828	1898.652
3	7286.973	1911.364
4	7282.952	1905.955
5	7282.670	1910.481
6	7282.643	1893.224
7	7286.189	1903.902
8	7285.533	1902.687
9	7283.801	1908.407